0  10 20 30 40 50 60 70 80 90 15 25 35
10 0  14 22 33 47 51 67 73 89 19 28 31
20 14 0  11 38 44 58 62 71 83 24 37 41
30 22 11 0  26 48 52 69 74 85 29 30 45
40 33 38 26 0  15 59 63 79 81 34 42 46
50 47 44 48 15 0  16 60 68 82 35 36 49
60 51 58 52 59 16 0  17 75 84 39 43 50
70 67 62 69 63 60 17 0  18 76 20 21 53
80 73 71 74 79 68 75 18 0  22 25 27 55
90 89 83 85 81 82 84 76 22 0  23 29 57
15 19 24 29 34 35 39 20 25 23 0  26 59
25 28 37 30 42 36 43 21 27 29 26 0  61
35 31 41 45 46 49 50 53 55 57 59 61 0 
